NAME          
ROWS
 N  OBJ
 L  c1
 L  c2
 L  c3
 L  c4
COLUMNS
    MARKER    'MARKER'                 'INTORG'
    x[1]      c1        959
    x[1]      c2        970
    x[1]      c3        336
    x[1]      c4        622
    x[1]      OBJ       -358
    x[2]      c1        859
    x[2]      c2        952
    x[2]      c3        751
    x[2]      c4        361
    x[2]      OBJ       -856
    x[3]      c1        157
    x[3]      c2        626
    x[3]      c3        127
    x[3]      c4        203
    x[3]      OBJ       -940
    x[4]      c1        229
    x[4]      c2        399
    x[4]      c3        315
    x[4]      c4        141
    x[4]      OBJ       -471
    x[5]      c1        719
    x[5]      c2        493
    x[5]      c3        639
    x[5]      c4        183
    x[5]      OBJ       -644
    x[6]      c1        554
    x[6]      c2        851
    x[6]      c3        155
    x[6]      c4        609
    x[6]      OBJ       -82
    x[7]      c1        568
    x[7]      c2        6
    x[7]      c3        47
    x[7]      c4        241
    x[7]      OBJ       -458
    x[8]      c1        64
    x[8]      c2        533
    x[8]      c3        582
    x[8]      c4        24
    x[8]      OBJ       -150
    x[9]      c1        742
    x[9]      c2        101
    x[9]      c3        122
    x[9]      c4        477
    x[9]      OBJ       -667
    x[10]     c1        515
    x[10]     c2        626
    x[10]     c3        730
    x[10]     c4        564
    x[10]     OBJ       -146
    x[11]     c1        79
    x[11]     c2        880
    x[11]     c3        930
    x[11]     c4        450
    x[11]     OBJ       -153
    x[12]     c1        786
    x[12]     c2        265
    x[12]     c3        642
    x[12]     c4        120
    x[12]     OBJ       -852
    x[13]     c1        109
    x[13]     c2        87
    x[13]     c3        256
    x[13]     c4        866
    x[13]     OBJ       -172
    x[14]     c1        229
    x[14]     c2        932
    x[14]     c3        339
    x[14]     c4        996
    x[14]     OBJ       -925
    x[15]     c1        543
    x[15]     c2        566
    x[15]     c3        56
    x[15]     c4        723
    x[15]     OBJ       -104
    x[16]     c1        168
    x[16]     c2        840
    x[16]     c3        371
    x[16]     c4        474
    x[16]     OBJ       -801
    x[17]     c1        45
    x[17]     c2        8
    x[17]     c3        839
    x[17]     c4        734
    x[17]     OBJ       -846
    x[18]     c1        74
    x[18]     c2        563
    x[18]     c3        906
    x[18]     c4        344
    x[18]     OBJ       -948
    x[19]     c1        666
    x[19]     c2        756
    x[19]     c3        322
    x[19]     c4        949
    x[19]     OBJ       -935
    x[20]     c1        882
    x[20]     c2        17
    x[20]     c3        572
    x[20]     c4        505
    x[20]     OBJ       -146
    x[21]     c1        295
    x[21]     c2        246
    x[21]     c3        762
    x[21]     c4        277
    x[21]     OBJ       -639
    x[22]     c1        511
    x[22]     c2        179
    x[22]     c3        877
    x[22]     c4        721
    x[22]     OBJ       -957
    x[23]     c1        865
    x[23]     c2        193
    x[23]     c3        384
    x[23]     c4        177
    x[23]     OBJ       -748
    x[24]     c1        87
    x[24]     c2        416
    x[24]     c3        739
    x[24]     c4        615
    x[24]     OBJ       -794
    x[25]     c1        370
    x[25]     c2        639
    x[25]     c3        195
    x[25]     c4        862
    x[25]     OBJ       -193
    x[26]     c1        332
    x[26]     c2        94
    x[26]     c3        222
    x[26]     c4        421
    x[26]     OBJ       -477
    x[27]     c1        904
    x[27]     c2        4
    x[27]     c3        404
    x[27]     c4        995
    x[27]     OBJ       -22
    x[28]     c1        887
    x[28]     c2        893
    x[28]     c3        38
    x[28]     c4        452
    x[28]     OBJ       -664
    x[29]     c1        751
    x[29]     c2        175
    x[29]     c3        706
    x[29]     c4        888
    x[29]     OBJ       -599
    x[30]     c1        241
    x[30]     c2        875
    x[30]     c3        873
    x[30]     c4        45
    x[30]     OBJ       -734
RHS
    rhs       c1        7095
    rhs       c2        7092
    rhs       c3        7118
    rhs       c4        7520
RANGES
BOUNDS
 BV bounds    x[1]
 BV bounds    x[2]
 BV bounds    x[3]
 BV bounds    x[4]
 BV bounds    x[5]
 BV bounds    x[6]
 BV bounds    x[7]
 BV bounds    x[8]
 BV bounds    x[9]
 BV bounds    x[10]
 BV bounds    x[11]
 BV bounds    x[12]
 BV bounds    x[13]
 BV bounds    x[14]
 BV bounds    x[15]
 BV bounds    x[16]
 BV bounds    x[17]
 BV bounds    x[18]
 BV bounds    x[19]
 BV bounds    x[20]
 BV bounds    x[21]
 BV bounds    x[22]
 BV bounds    x[23]
 BV bounds    x[24]
 BV bounds    x[25]
 BV bounds    x[26]
 BV bounds    x[27]
 BV bounds    x[28]
 BV bounds    x[29]
 BV bounds    x[30]
ENDATA
